20	5
0	7	6	2	16	3	5	1	4
1	1	10
2	1	21
3	1	8
4	1	13
5	2	11	18
6	1	15
7	4	18	14	19	17
8	1	12
9	1	7
10	1	9
11	2	20	17
12	1	21
13	1	21
14	1	21
15	1	21
16	2	21	2
17	1	21
18	1	21
19	1	21
20	1	21
21	0
0	0	0	0	0	0	0
1	2	5	4	3	1	4
2	9	4	4	3	5	2
3	3	4	4	2	4	4
4	5	5	5	1	2	3
5	1	1	5	5	4	2
6	10	5	5	1	1	2
7	7	2	4	5	2	1
8	8	3	1	2	3	5
9	10	5	4	1	3	4
10	5	5	5	5	5	3
11	3	5	5	1	2	1
12	9	4	5	4	5	4
13	8	5	5	4	3	3
14	5	2	5	2	4	3
15	10	4	5	5	5	3
16	3	4	4	2	3	5
17	6	5	5	4	4	2
18	9	3	3	2	2	4
19	7	5	5	2	1	3
20	8	5	4	5	5	1
21	0	0	0	0	0	0
12	13	9	10	10
